0 0 0 0
0 1 0 4
0 2 0 0
0 3 0 0
0 4 0 2
0 5 1 9
0 6 2 2
0 7 0 5
0 8 0 5
0 9 0 8
0 10 1 14
0 11 0 8
0 12 0 18
0 13 0 5
0 14 0 15
0 15 2 23
0 16 1 10
0 17 0 16
0 18 0 18
0 19 0 9
0 20 1 11
0 21 1 16
0 22 0 15
0 23 0 18
0 24 0 23
0 25 2 21
0 26 0 24
0 27 0 22
0 28 1 29
0 29 1 30
0 30 0 29
0 31 0 36
